unsat
(:cnf-encoding-aux-vars   38
 :eliminated-applications 3
 :eliminated-vars         62
 :max-memory              18.90
 :memory                  18.34
 :nlsat-conflicts         5
 :nlsat-decisions         7
 :nlsat-learned-added     4
 :nlsat-propagations      25
 :num-allocs              21952
 :rlimit-count            61702
 :time                    0.02
 :total-time              0.04)
